id: 1761
name: neos1
group: mittelmann/misc
method: 1

Gurobi 7.0.2 (linux64, Matlab) logging started Sun Apr 22 14:51:06 2018


Gurobi 7.0.2 (linux64) logging started Sun Apr 22 14:51:06 2018

Optimize a model with 131581 rows, 1892 columns and 468009 nonzeros
Coefficient statistics:
  Matrix range     [1e+00, 1e+00]
  Objective range  [1e+00, 1e+00]
  Bounds range     [0e+00, 0e+00]
  RHS range        [1e+05, 1e+05]
Presolve time: 0.11s
Presolved: 1892 rows, 131581 columns, 468009 nonzeros

Iteration    Objective       Primal Inf.    Dual Inf.      Time
       0    4.4574125e+04   4.096068e+00   1.285390e+10      0s
   39219    4.6702703e+04   0.000000e+00   0.000000e+00      4s

Solved in 39219 iterations and 4.04 seconds
Optimal objective  4.670270270e+04
status: OPTIMAL
